sifdecoder -A pc64.lnx.gfo -st   SOSQP2

 Problem name: SOSQP2

 Double precision version will be formed

 The objective function uses 1 nonlinear group
 
 There are 2501 linear equality constraints
 
 There are 5000 variables bounded from below and above 
 
 
 File successfully decoded
 CUTEST: tools (double precision version) compiled successfully
 CUTEst: ipopt (double precision version) compiled successfully

******************************************************************************
This program contains Ipopt, a library for large-scale nonlinear optimization.
 Ipopt is released as open source code under the Eclipse Public License (EPL).
         For more information visit http://projects.coin-or.org/Ipopt
******************************************************************************

This is Ipopt version trunk, running with linear solver ma57.

Number of nonzeros in equality constraint Jacobian...:    10000
Number of nonzeros in inequality constraint Jacobian.:        0
Number of nonzeros in Lagrangian Hessian.............:     7500

Total number of variables............................:     5000
                     variables with only lower bounds:        0
                variables with lower and upper bounds:     5000
                     variables with only upper bounds:        0
Total number of equality constraints.................:     2501
Total number of inequality constraints...............:        0
        inequality constraints with only lower bounds:        0
   inequality constraints with lower and upper bounds:        0
        inequality constraints with only upper bounds:        0

iter    objective    inf_pr   inf_du lg(mu)  ||d||  lg(rg) alpha_du alpha_pr  ls
   0  0.0000000e+00 2.50e+03 0.00e+00  -1.0 0.00e+00    -  0.00e+00 0.00e+00   0
   1 -1.2191450e+03 2.45e+01 9.38e-01  -1.0 1.00e+00    -  5.21e-01 9.90e-01h  1
   2 -1.2443182e+03 1.16e-12 2.73e+00  -1.0 3.21e-01    -  7.25e-01 1.00e+00h  1
   3 -1.2457440e+03 5.30e-13 2.27e-13  -1.0 3.16e-01    -  1.00e+00 1.00e+00f  1
   4 -1.2462695e+03 1.13e-12 7.35e+01  -2.5 1.47e-01    -  8.52e-01 1.00e+00f  1
   5 -1.2470746e+03 4.60e-12 9.86e-01  -2.5 2.11e-01    -  9.86e-01 1.00e+00f  1
   6 -1.2477191e+03 5.37e-12 5.33e-15  -2.5 1.88e-01    -  1.00e+00 1.00e+00f  1
   7 -1.2481211e+03 1.86e-12 1.31e+00  -3.8 1.16e-01    -  8.97e-01 1.00e+00f  1
   8 -1.2484744e+03 1.19e-12 6.11e-16  -3.8 1.90e-01    -  1.00e+00 1.00e+00f  1
   9 -1.2486406e+03 5.38e-13 8.05e-02  -5.7 1.45e-01    -  8.26e-01 1.00e+00f  1
iter    objective    inf_pr   inf_du lg(mu)  ||d||  lg(rg) alpha_du alpha_pr  ls
  10 -1.2486858e+03 5.20e-13 5.73e-03  -5.7 8.26e-02    -  9.55e-01 1.00e+00f  1
  11 -1.2486966e+03 6.64e-12 5.64e-16  -5.7 4.58e-02    -  1.00e+00 1.00e+00f  1
  12 -1.2487004e+03 6.79e-12 1.04e-03  -8.6 2.98e-02    -  9.69e-01 9.97e-01f  1
  13 -1.2487008e+03 9.88e-13 1.35e-04  -8.6 1.64e-02    -  9.93e-01 1.00e+00f  1
  14 -1.2487009e+03 5.46e-13 6.33e-16  -8.6 8.80e-03    -  1.00e+00 1.00e+00f  1
  15 -1.2487009e+03 5.11e-13 5.95e-16  -8.6 4.47e-03    -  1.00e+00 1.00e+00h  1
  16 -1.2487009e+03 7.16e-13 6.36e-16  -9.0 2.29e-03    -  1.00e+00 1.00e+00h  1

Number of Iterations....: 16

                                   (scaled)                 (unscaled)
Objective...............:  -1.2487008700650008e+03   -1.2487008700650008e+03
Dual infeasibility......:   6.3578165965965695e-16    6.3578165965965695e-16
Constraint violation....:   7.1564976167337591e-13    7.1564976167337591e-13
Complementarity.........:   6.6649207287198176e-09    6.6649207287198176e-09
Overall NLP error.......:   6.6649207287198176e-09    6.6649207287198176e-09


Number of objective function evaluations             = 17
Number of objective gradient evaluations             = 17
Number of equality constraint evaluations            = 17
Number of inequality constraint evaluations          = 0
Number of equality constraint Jacobian evaluations   = 17
Number of inequality constraint Jacobian evaluations = 0
Number of Lagrangian Hessian evaluations             = 16
Total CPU secs in IPOPT (w/o function evaluations)   =      0.270
Total CPU secs in NLP function evaluations           =      0.052

EXIT: Optimal Solution Found.

************************ CUTEst statistics ************************


 Package used            :  IPOPT
 Problem                 :  SOSQP2    
 # variables             =            5000
 # constraints           =            2501
 # objective functions   =        0.3500000E+02
 # objective gradients   =        0.1800000E+02
 # objective Hessians    =        0.1700000E+02
 # Hessian-vector prdct  =        0.0000000E+00
 # constraints functions =        0.3600000E+02
 # constraints gradients =        0.1900000E+02
 # constraints Hessians  =        0.1700000E+02
 Exit code               =               0
 Final f                 =       -1.2487008700650008D+03
 Bounds feasibility      =        9.0879959113721043D-09
 Set up time             =            0.29 seconds
 Solve time              =            0.68 seconds


******************************************************************

